c @top --> 83
c p8@v2 --> 81
c p8@v1 --> 80
c p8@v0 --> 79
c p3@v4 --> 78
c p3@v3 --> 77
c p3@v2 --> 76
c p3@v0 --> 74
c p7@v4 --> 72
c p7@v3 --> 71
c p7@v2 --> 70
c p7@v1 --> 69
c p3@v1 --> 75
c p7@v0 --> 68
c p11@v2 --> 67
c p11@v1 --> 66
c p11@v0 --> 65
c p4 --> 64
c p15@v2 --> 63
c p15@v1 --> 62
c p2@v12 --> 60
c p9@v0 --> 26
c p9@v5 --> 31
c p18@v1 --> 7
c p0@v6 --> 22
c p5@v0 --> 42
c p15@v0 --> 61
c p1@v2 --> 41
c p10 --> 82
c p0@v5 --> 21
c p7@v5 --> 73
c p0@v8 --> 24
c p12@v5 --> 38
c p19@v0 --> 1
c p0@v3 --> 19
c p16@v3 --> 13
c p19@v1 --> 2
c p9@v1 --> 27
c p0@v0 --> 16
c p19@v4 --> 5
c p5@v2 --> 44
c p18@v0 --> 6
c p0@v4 --> 20
c p16@v1 --> 11
c p0@v2 --> 18
c p14 --> 14
c p12@v0 --> 33
c p19@v3 --> 4
c p1@v0 --> 39
c p16@v2 --> 12
c p2@v6 --> 54
c p9@v4 --> 30
c p6@v1 --> 46
c p9@v6 --> 32
c p12@v1 --> 34
c p6@v0 --> 45
c p12@v2 --> 35
c p12@v3 --> 36
c p2@v5 --> 53
c p17 --> 9
c p12@v4 --> 37
c p1@v1 --> 40
c p9@v2 --> 28
c p2@v7 --> 55
c p18@v2 --> 8
c p5@v1 --> 43
c p19@v2 --> 3
c p6@v2 --> 47
c p0@v7 --> 23
c p13 --> 15
c p9@v3 --> 29
c p2@v1 --> 49
c p16@v0 --> 10
c p0@v1 --> 17
c p2@v0 --> 48
c p2@v2 --> 50
c p0@v9 --> 25
c p2@v3 --> 51
c p2@v4 --> 52
c p2@v8 --> 56
c p2@v9 --> 57
c p2@v10 --> 58
c p2@v11 --> 59
p cnf 83 261
-77 -49 0
-76 -55 0
-77 -50 0
-50 -78 0
-75 -55 0
-75 -56 0
-76 -56 0
-74 -55 0
-58 -74 0
-60 -74 0
-75 -57 0
-58 -75 0
-74 -56 0
-58 -76 0
-76 -57 0
-76 -59 0
-49 -78 0
-75 -59 0
-77 -48 0
-60 -76 0
-60 -75 0
-74 -59 0
-48 -78 0
-74 -57 0
1 2 3 4 5 0
-1 -2 0
-1 -3 0
-1 -4 0
-1 -5 0
-2 -3 0
-2 -4 0
-2 -5 0
-3 -4 0
-3 -5 0
-4 -5 0
6 7 8 0
-6 -7 0
-6 -8 0
-7 -8 0
10 11 12 13 0
-10 -11 0
-10 -12 0
-10 -13 0
-11 -12 0
-11 -13 0
-12 -13 0
16 17 18 19 20 21 22 23 24 25 0
-16 -17 0
-16 -18 0
-16 -19 0
-16 -20 0
-16 -21 0
-16 -22 0
-16 -23 0
-16 -24 0
-16 -25 0
-17 -18 0
-17 -19 0
-17 -20 0
-17 -21 0
-17 -22 0
-17 -23 0
-17 -24 0
-17 -25 0
-18 -19 0
-18 -20 0
-18 -21 0
-18 -22 0
-18 -23 0
-18 -24 0
-18 -25 0
-19 -20 0
-19 -21 0
-19 -22 0
-19 -23 0
-19 -24 0
-19 -25 0
-20 -21 0
-20 -22 0
-20 -23 0
-20 -24 0
-20 -25 0
-21 -22 0
-21 -23 0
-21 -24 0
-21 -25 0
-22 -23 0
-22 -24 0
-22 -25 0
-23 -24 0
-23 -25 0
-24 -25 0
26 27 28 29 30 31 32 0
-26 -27 0
-26 -28 0
-26 -29 0
-26 -30 0
-26 -31 0
-26 -32 0
-27 -28 0
-27 -29 0
-27 -30 0
-27 -31 0
-27 -32 0
-28 -29 0
-28 -30 0
-28 -31 0
-28 -32 0
-29 -30 0
-29 -31 0
-29 -32 0
-30 -31 0
-30 -32 0
-31 -32 0
33 34 35 36 37 38 0
-33 -34 0
-33 -35 0
-33 -36 0
-33 -37 0
-33 -38 0
-34 -35 0
-34 -36 0
-34 -37 0
-34 -38 0
-35 -36 0
-35 -37 0
-35 -38 0
-36 -37 0
-36 -38 0
-37 -38 0
39 40 41 0
-39 -40 0
-39 -41 0
-40 -41 0
42 43 44 0
-42 -43 0
-42 -44 0
-43 -44 0
45 46 47 0
-45 -46 0
-45 -47 0
-46 -47 0
48 49 50 51 52 53 54 55 56 57 58 59 60 0
-48 -49 0
-48 -50 0
-48 -51 0
-48 -52 0
-48 -53 0
-48 -54 0
-48 -55 0
-48 -56 0
-48 -57 0
-48 -58 0
-48 -59 0
-48 -60 0
-49 -50 0
-49 -51 0
-49 -52 0
-49 -53 0
-49 -54 0
-49 -55 0
-49 -56 0
-49 -57 0
-49 -58 0
-49 -59 0
-49 -60 0
-50 -51 0
-50 -52 0
-50 -53 0
-50 -54 0
-50 -55 0
-50 -56 0
-50 -57 0
-50 -58 0
-50 -59 0
-50 -60 0
-51 -52 0
-51 -53 0
-51 -54 0
-51 -55 0
-51 -56 0
-51 -57 0
-51 -58 0
-51 -59 0
-51 -60 0
-52 -53 0
-52 -54 0
-52 -55 0
-52 -56 0
-52 -57 0
-52 -58 0
-52 -59 0
-52 -60 0
-53 -54 0
-53 -55 0
-53 -56 0
-53 -57 0
-53 -58 0
-53 -59 0
-53 -60 0
-54 -55 0
-54 -56 0
-54 -57 0
-54 -58 0
-54 -59 0
-54 -60 0
-55 -56 0
-55 -57 0
-55 -58 0
-55 -59 0
-55 -60 0
-56 -57 0
-56 -58 0
-56 -59 0
-56 -60 0
-57 -58 0
-57 -59 0
-57 -60 0
-58 -59 0
-58 -60 0
-59 -60 0
61 62 63 0
-61 -62 0
-61 -63 0
-62 -63 0
65 66 67 0
-65 -66 0
-65 -67 0
-66 -67 0
68 69 70 71 72 73 0
-68 -69 0
-68 -70 0
-68 -71 0
-68 -72 0
-68 -73 0
-69 -70 0
-69 -71 0
-69 -72 0
-69 -73 0
-70 -71 0
-70 -72 0
-70 -73 0
-71 -72 0
-71 -73 0
-72 -73 0
74 75 76 77 78 0
-74 -75 0
-74 -76 0
-74 -77 0
-74 -78 0
-75 -76 0
-75 -77 0
-75 -78 0
-76 -77 0
-76 -78 0
-77 -78 0
79 80 81 0
-79 -80 0
-79 -81 0
-80 -81 0
83 -83 0
